10574.76,57.52,71.35
9921.31,61.3,76.05
11187.35,54.37,67.44
10450.5,58.2,72.2
9845.24,61.78,76.63
10758.52,56.53,70.13
10946.43,55.56,68.93
10124.01,60.08,74.52
9671.34,62.89,78.01
10473.35,58.07,72.04
9964.96,61.04,75.71
10352.49,58.75,72.88
10703.21,56.83,70.49
10562.91,57.58,71.43
11033.23,55.13,68.38
9767.27,62.27,77.25
10032.13,60.63,75.21
11275.57,53.94,66.91
11335.41,53.66,66.56
9761.49,62.31,77.29
